(set-info :source |printed by MathSAT|)
(declare-fun .x.14 () Int)
(declare-fun .x.15 () Int)
(declare-fun main@%.0.i_0_0 () Int)
(declare-fun .x.16 () Int)
(declare-fun main@%_12_0_0 () Int)
(declare-fun main@%_12_1 () Int)
(declare-fun main@%assume.flag.0_0_0 () Bool)
(declare-fun .x.17 () Bool)
(declare-fun main@%_11_0_0 () Int)
(declare-fun main@%_11_1 () Int)
(declare-fun main@%shadow.mem2.1_0_0 () (Array Int Int))
(declare-fun .x.18 () (Array Int Int))
(declare-fun main@%_9_0_0 () Int)
(declare-fun main@%_9_1 () Int)
(declare-fun main@%shadow.mem.1_0_0 () (Array Int Int))
(declare-fun .x.19 () (Array Int Int))
(declare-fun main@%_10_0_0 () Int)
(declare-fun main@%_10_1 () Int)
(declare-fun main@%shadow.mem1.1_0_0 () (Array Int Int))
(declare-fun .x.20 () (Array Int Int))
(declare-fun main@%_7_0_0 () Bool)
(declare-fun main@%_7_1 () Bool)
(declare-fun @nd_char_0_0 () Int)
(declare-fun .x.21 () Int)
(declare-fun main@%.01.i1_0_0 () Int)
(declare-fun main@%.01.i1_2 () Int)
(declare-fun main@%shadow.mem.0_0_0 () (Array Int Int))
(declare-fun main@%shadow.mem.0_2 () (Array Int Int))
(declare-fun main@%shadow.mem1.0_0_0 () (Array Int Int))
(declare-fun main@%shadow.mem1.0_2 () (Array Int Int))
(declare-fun main@%shadow.mem2.0_0_0 () (Array Int Int))
(declare-fun main@%shadow.mem2.0_2 () (Array Int Int))
(declare-fun @nd_0_0 () Int)
(declare-fun .x.22 () Int)
(declare-fun main@%_20_0 () Int)
(declare-fun main@%_8_0 () Int)
(define-fun .def_8 () Int (! .x.14 :next |.x.15|))
(define-fun .def_10 () Int (! main@%.0.i_0_0 :next |.x.16|))
(define-fun .def_12 () Int (! main@%_12_0_0 :next |main@%_12_1|))
(define-fun .def_14 () Bool (! main@%assume.flag.0_0_0 :next |.x.17|))
(define-fun .def_16 () Int (! main@%_11_0_0 :next |main@%_11_1|))
(define-fun .def_18 () (Array Int Int) (! main@%shadow.mem2.1_0_0 :next |.x.18|))
(define-fun .def_20 () Int (! main@%_9_0_0 :next |main@%_9_1|))
(define-fun .def_22 () (Array Int Int) (! main@%shadow.mem.1_0_0 :next |.x.19|))
(define-fun .def_24 () Int (! main@%_10_0_0 :next |main@%_10_1|))
(define-fun .def_26 () (Array Int Int) (! main@%shadow.mem1.1_0_0 :next |.x.20|))
(define-fun .def_28 () Bool (! main@%_7_0_0 :next |main@%_7_1|))
(define-fun .def_30 () Int (! @nd_char_0_0 :next |.x.21|))
(define-fun .def_32 () Int (! main@%.01.i1_0_0 :next |main@%.01.i1_2|))
(define-fun .def_34 () (Array Int Int) (! main@%shadow.mem.0_0_0 :next |main@%shadow.mem.0_2|))
(define-fun .def_36 () (Array Int Int) (! main@%shadow.mem1.0_0_0 :next |main@%shadow.mem1.0_2|))
(define-fun .def_38 () (Array Int Int) (! main@%shadow.mem2.0_0_0 :next |main@%shadow.mem2.0_2|))
(define-fun .def_40 () Int (! @nd_0_0 :next |.x.22|))
(define-fun .def_180 () Int (! main@%_20_0 :next |.xtv.1|))
(define-fun .def_182 () Int (! main@%_8_0 :next |.xtv.2|))
(define-fun .def_234 () Bool (! (= .def_8 0) :init true))
(define-fun .def_266 () Bool (= .def_30 .x.21))
(define-fun .def_265 () Bool (= .def_40 .x.22))
(define-fun .def_267 () Bool (and .def_265 .def_266))
(define-fun .def_257 () Bool (= main@%.01.i1_2 0))
(define-fun .def_236 () Bool (<= .def_182 0))
(define-fun .def_237 () Bool (not .def_236))
(define-fun .def_195 () Bool (= .x.15 1))
(define-fun .def_42 () Bool (= .def_10 .x.16))
(define-fun .def_196 () Bool (and .def_42 .def_195))
(define-fun .def_44 () Bool (= .def_14 .x.17))
(define-fun .def_197 () Bool (and .def_44 .def_196))
(define-fun .def_46 () Bool (= .def_18 .x.18))
(define-fun .def_198 () Bool (and .def_46 .def_197))
(define-fun .def_48 () Bool (= .def_22 .x.19))
(define-fun .def_199 () Bool (and .def_48 .def_198))
(define-fun .def_50 () Bool (= .def_26 .x.20))
(define-fun .def_200 () Bool (and .def_50 .def_199))
(define-fun .def_255 () Bool (and .def_200 .def_237))
(define-fun .def_241 () Int (* 16777216 .def_182))
(define-fun .def_243 () Real (* (/ 1 16777216) (to_real .def_241)))
(define-fun .def_244 () Int (to_int .def_243))
(define-fun .def_245 () Bool (= main@%_12_1 .def_244))
(define-fun .def_256 () Bool (and .def_245 .def_255))
(define-fun .def_258 () Bool (and .def_256 .def_257))
(define-fun .def_247 () Bool (= .x.17 main@%_7_1))
(define-fun .def_246 () Bool (and .def_236 .def_245))
(define-fun .def_248 () Bool (and .def_246 .def_247))
(define-fun .def_144 () Bool (= .x.16 0))
(define-fun .def_249 () Bool (and .def_144 .def_248))
(define-fun .def_118 () Bool (= .x.15 2))
(define-fun .def_250 () Bool (and .def_118 .def_249))
(define-fun .def_52 () Bool (= .def_32 main@%.01.i1_2))
(define-fun .def_251 () Bool (and .def_52 .def_250))
(define-fun .def_54 () Bool (= .def_34 main@%shadow.mem.0_2))
(define-fun .def_252 () Bool (and .def_54 .def_251))
(define-fun .def_56 () Bool (= .def_36 main@%shadow.mem1.0_2))
(define-fun .def_253 () Bool (and .def_56 .def_252))
(define-fun .def_58 () Bool (= .def_38 main@%shadow.mem2.0_2))
(define-fun .def_254 () Bool (and .def_58 .def_253))
(define-fun .def_259 () Bool (or .def_254 .def_258))
(define-fun .def_238 () Bool (= main@%_7_1 .def_237))
(define-fun .def_231 () Bool (<= main@%_11_1 0))
(define-fun .def_232 () Bool (not .def_231))
(define-fun .def_228 () Bool (<= main@%_9_1 0))
(define-fun .def_229 () Bool (not .def_228))
(define-fun .def_226 () Bool (<= main@%_10_1 0))
(define-fun .def_227 () Bool (not .def_226))
(define-fun .def_230 () Bool (and .def_227 .def_229))
(define-fun .def_233 () Bool (and .def_230 .def_232))
(define-fun .def_235 () Bool (and .def_233 .def_234))
(define-fun .def_239 () Bool (and .def_235 .def_238))
(define-fun .def_260 () Bool (and .def_239 .def_259))
(define-fun .def_216 () Int (* (- 1) main@%.01.i1_2))
(define-fun .def_217 () Int (+ .def_32 .def_216))
(define-fun .def_218 () Bool (= .def_217 (- 1)))
(define-fun .def_160 () Int (+ .def_20 .def_32))
(define-fun .def_190 () (Array Int Int) (store .def_34 .def_160 .def_182))
(define-fun .def_213 () Bool (= main@%shadow.mem.0_2 .def_190))
(define-fun .def_155 () Int (+ .def_24 .def_32))
(define-fun .def_187 () (Array Int Int) (store .def_36 .def_155 .def_180))
(define-fun .def_211 () Bool (= main@%shadow.mem1.0_2 .def_187))
(define-fun .def_181 () Int (* (- 1) .def_180))
(define-fun .def_183 () Int (+ .def_181 .def_182))
(define-fun .def_150 () Int (+ .def_16 .def_32))
(define-fun .def_184 () (Array Int Int) (store .def_38 .def_150 .def_183))
(define-fun .def_209 () Bool (= main@%shadow.mem2.0_2 .def_184))
(define-fun .def_169 () Int (* (- 1) .def_32))
(define-fun .def_170 () Int (+ .def_12 .def_169))
(define-fun .def_171 () Bool (<= .def_170 1))
(define-fun .def_207 () Bool (not .def_171))
(define-fun .def_151 () Bool (<= .def_150 0))
(define-fun .def_152 () Bool (not .def_151))
(define-fun .def_67 () Bool (<= .def_16 0))
(define-fun .def_153 () Bool (or .def_67 .def_152))
(define-fun .def_201 () Bool (and .def_153 .def_200))
(define-fun .def_156 () Bool (<= .def_155 0))
(define-fun .def_157 () Bool (not .def_156))
(define-fun .def_64 () Bool (<= .def_24 0))
(define-fun .def_158 () Bool (or .def_64 .def_157))
(define-fun .def_202 () Bool (and .def_158 .def_201))
(define-fun .def_161 () Bool (<= .def_160 0))
(define-fun .def_162 () Bool (not .def_161))
(define-fun .def_61 () Bool (<= .def_20 0))
(define-fun .def_163 () Bool (or .def_61 .def_162))
(define-fun .def_203 () Bool (and .def_163 .def_202))
(define-fun .def_62 () Bool (not .def_61))
(define-fun .def_204 () Bool (and .def_62 .def_203))
(define-fun .def_65 () Bool (not .def_64))
(define-fun .def_205 () Bool (and .def_65 .def_204))
(define-fun .def_68 () Bool (not .def_67))
(define-fun .def_206 () Bool (and .def_68 .def_205))
(define-fun .def_208 () Bool (and .def_206 .def_207))
(define-fun .def_210 () Bool (and .def_208 .def_209))
(define-fun .def_212 () Bool (and .def_210 .def_211))
(define-fun .def_214 () Bool (and .def_212 .def_213))
(define-fun .def_219 () Bool (and .def_214 .def_218))
(define-fun .def_173 () Bool (= .def_8 1))
(define-fun .def_220 () Bool (and .def_173 .def_219))
(define-fun .def_70 () Bool (= .def_12 main@%_12_1))
(define-fun .def_221 () Bool (and .def_70 .def_220))
(define-fun .def_72 () Bool (= .def_16 main@%_11_1))
(define-fun .def_222 () Bool (and .def_72 .def_221))
(define-fun .def_74 () Bool (= .def_20 main@%_9_1))
(define-fun .def_223 () Bool (and .def_74 .def_222))
(define-fun .def_76 () Bool (= .def_24 main@%_10_1))
(define-fun .def_224 () Bool (and .def_76 .def_223))
(define-fun .def_78 () Bool (= .def_28 main@%_7_1))
(define-fun .def_225 () Bool (and .def_78 .def_224))
(define-fun .def_261 () Bool (or .def_225 .def_260))
(define-fun .def_193 () Bool (= .x.17 .def_28))
(define-fun .def_191 () Bool (= .x.19 .def_190))
(define-fun .def_188 () Bool (= .x.20 .def_187))
(define-fun .def_185 () Bool (= .x.18 .def_184))
(define-fun .def_145 () Bool (and .def_118 .def_144))
(define-fun .def_146 () Bool (and .def_52 .def_145))
(define-fun .def_147 () Bool (and .def_54 .def_146))
(define-fun .def_148 () Bool (and .def_56 .def_147))
(define-fun .def_149 () Bool (and .def_58 .def_148))
(define-fun .def_154 () Bool (and .def_149 .def_153))
(define-fun .def_159 () Bool (and .def_154 .def_158))
(define-fun .def_164 () Bool (and .def_159 .def_163))
(define-fun .def_165 () Bool (and .def_62 .def_164))
(define-fun .def_166 () Bool (and .def_65 .def_165))
(define-fun .def_167 () Bool (and .def_68 .def_166))
(define-fun .def_172 () Bool (and .def_167 .def_171))
(define-fun .def_174 () Bool (and .def_172 .def_173))
(define-fun .def_175 () Bool (and .def_70 .def_174))
(define-fun .def_176 () Bool (and .def_72 .def_175))
(define-fun .def_177 () Bool (and .def_74 .def_176))
(define-fun .def_178 () Bool (and .def_76 .def_177))
(define-fun .def_179 () Bool (and .def_78 .def_178))
(define-fun .def_186 () Bool (and .def_179 .def_185))
(define-fun .def_189 () Bool (and .def_186 .def_188))
(define-fun .def_192 () Bool (and .def_189 .def_191))
(define-fun .def_194 () Bool (and .def_192 .def_193))
(define-fun .def_262 () Bool (or .def_194 .def_261))
(define-fun .def_139 () Int (* (- 1) .x.16))
(define-fun .def_140 () Int (+ .def_10 .def_139))
(define-fun .def_141 () Bool (= .def_140 (- 1)))
(define-fun .def_95 () Bool (<= .def_12 .def_10))
(define-fun .def_96 () Bool (not .def_95))
(define-fun .def_136 () Bool (and .def_14 .def_96))
(define-fun .def_137 () Bool (= .x.17 .def_136))
(define-fun .def_116 () Bool (and .def_46 .def_48))
(define-fun .def_117 () Bool (and .def_50 .def_116))
(define-fun .def_119 () Bool (and .def_117 .def_118))
(define-fun .def_120 () Bool (and .def_52 .def_119))
(define-fun .def_121 () Bool (and .def_54 .def_120))
(define-fun .def_122 () Bool (and .def_56 .def_121))
(define-fun .def_123 () Bool (and .def_58 .def_122))
(define-fun .def_124 () Bool (and .def_62 .def_123))
(define-fun .def_125 () Bool (and .def_65 .def_124))
(define-fun .def_126 () Bool (and .def_68 .def_125))
(define-fun .def_127 () Bool (and .def_70 .def_126))
(define-fun .def_128 () Bool (and .def_72 .def_127))
(define-fun .def_129 () Bool (and .def_74 .def_128))
(define-fun .def_130 () Bool (and .def_76 .def_129))
(define-fun .def_131 () Bool (and .def_78 .def_130))
(define-fun .def_80 () Int (+ .def_10 .def_20))
(define-fun .def_81 () Bool (<= .def_80 0))
(define-fun .def_82 () Bool (not .def_81))
(define-fun .def_83 () Bool (or .def_61 .def_82))
(define-fun .def_132 () Bool (and .def_83 .def_131))
(define-fun .def_85 () Int (+ .def_10 .def_16))
(define-fun .def_86 () Bool (<= .def_85 0))
(define-fun .def_87 () Bool (not .def_86))
(define-fun .def_88 () Bool (or .def_67 .def_87))
(define-fun .def_133 () Bool (and .def_88 .def_132))
(define-fun .def_90 () Int (+ .def_10 .def_24))
(define-fun .def_91 () Bool (<= .def_90 0))
(define-fun .def_92 () Bool (not .def_91))
(define-fun .def_93 () Bool (or .def_64 .def_92))
(define-fun .def_134 () Bool (and .def_93 .def_133))
(define-fun .def_106 () Int (select .def_26 .def_90))
(define-fun .def_102 () Int (select .def_22 .def_80))
(define-fun .def_104 () Int (* (- 1) .def_102))
(define-fun .def_108 () Int (+ .def_104 .def_106))
(define-fun .def_101 () Int (select .def_18 .def_85))
(define-fun .def_109 () Int (+ .def_101 .def_108))
(define-fun .def_110 () Bool (= .def_109 0))
(define-fun .def_135 () Bool (and .def_110 .def_134))
(define-fun .def_138 () Bool (and .def_135 .def_137))
(define-fun .def_142 () Bool (and .def_138 .def_141))
(define-fun .def_99 () Bool (= .def_8 2))
(define-fun .def_143 () Bool (and .def_99 .def_142))
(define-fun .def_263 () Bool (or .def_143 .def_262))
(define-fun .def_114 () Bool (= .x.15 3))
(define-fun .def_111 () Bool (not .def_110))
(define-fun .def_43 () Bool (and .def_14 .def_42))
(define-fun .def_45 () Bool (and .def_43 .def_44))
(define-fun .def_47 () Bool (and .def_45 .def_46))
(define-fun .def_49 () Bool (and .def_47 .def_48))
(define-fun .def_51 () Bool (and .def_49 .def_50))
(define-fun .def_53 () Bool (and .def_51 .def_52))
(define-fun .def_55 () Bool (and .def_53 .def_54))
(define-fun .def_57 () Bool (and .def_55 .def_56))
(define-fun .def_59 () Bool (and .def_57 .def_58))
(define-fun .def_63 () Bool (and .def_59 .def_62))
(define-fun .def_66 () Bool (and .def_63 .def_65))
(define-fun .def_69 () Bool (and .def_66 .def_68))
(define-fun .def_71 () Bool (and .def_69 .def_70))
(define-fun .def_73 () Bool (and .def_71 .def_72))
(define-fun .def_75 () Bool (and .def_73 .def_74))
(define-fun .def_77 () Bool (and .def_75 .def_76))
(define-fun .def_79 () Bool (and .def_77 .def_78))
(define-fun .def_84 () Bool (and .def_79 .def_83))
(define-fun .def_89 () Bool (and .def_84 .def_88))
(define-fun .def_94 () Bool (and .def_89 .def_93))
(define-fun .def_97 () Bool (and .def_94 .def_96))
(define-fun .def_100 () Bool (and .def_97 .def_99))
(define-fun .def_112 () Bool (and .def_100 .def_111))
(define-fun .def_115 () Bool (and .def_112 .def_114))
(define-fun .def_264 () Bool (or .def_115 .def_263))
(define-fun .def_268 () Bool (! (and .def_264 .def_267) :trans true))
(define-fun .def_269 () Bool (= .def_8 3))
(define-fun .def_270 () Bool (! (not .def_269) :invar-property 0))
(assert true)
